Problem:    
Rows:       256
Columns:    89 (72 integer, 72 binary)
Non-zeros:  960
Status:     INTEGER OPTIMAL
Objective:  value = 88.043546 (MINimum)

   No.   Row name        Activity     Lower bound   Upper bound
------ ------------    ------------- ------------- -------------
     1 r.5                   1088.04             0               
     2 r.6                  -934.807      -972.251               
     3 r.7                   88.0435             0               
     4 r.8                    67.888      -987.865               
     5 r.9                   1088.04             0               
     6 r.10                 -963.995      -970.909               
     7 r.11                  88.0435             0               
     8 r.12                   46.223      -987.512               
     9 r.13                  88.0435             0               
    10 r.14                  44.9663      -948.202               
    11 r.15                  1088.04             0               
    12 r.16                 -955.034       -980.34               
    13 r.17                  88.0435             0               
    14 r.18                  25.3062      -973.767               
    15 r.19                  1088.04             0               
    16 r.20                 -974.694      -989.746               
    17 r.21                  88.0435             0               
    18 r.22                  44.9663      -974.812               
    19 r.23                  1088.04             0               
    20 r.24                 -984.948      -989.782               
    21 r.25                  1088.04             0               
    22 r.26                 -999.483      -999.483               
    23 r.27                  88.0435             0               
    24 r.28                  8.60337      -995.056               
    25 r.29                  88.0435             0               
    26 r.30                  88.0435      -936.109               
    27 r.31                  1088.04             0               
    28 r.32                 -911.956      -978.588               
    29 r.33                  88.0435             0               
    30 r.34                  88.0435      -935.995               
    31 r.35                  1088.04             0               
    32 r.36                 -933.369      -978.335               
    33 r.37                        1             1             = 
    34 r.38                        1             1             = 
    35 r.39                        1             1             = 
    36 r.40                        1             1             = 
    37 r.41                        1             1             = 
    38 r.42                        1             1             = 
    39 r.43                        1             1             = 
    40 r.44                        1             1             = 
    41 r.45                        2             2               
    42 r.46                       -2         -1001               
    43 r.47                 -30.6263      -970.909               
    44 r.48                     1000             2               
    45 r.49                    -1000         -1001               
    46 r.50                  1979.59      -987.512               
    47 r.51                     1001             2               
    48 r.52                    -1001         -1001               
    49 r.53                  1978.34      -948.202               
    50 r.54                     1001             2               
    51 r.55                    -1001         -1001               
    52 r.56                  1978.34       -980.34               
    53 r.57                     1001             2               
    54 r.58                    -1001         -1001               
    55 r.59                  1958.67      -973.767               
    56 r.60                     1001             2               
    57 r.61                    -1001         -1001               
    58 r.62                  1958.67      -989.746               
    59 r.63                     1001             2               
    60 r.64                    -1001         -1001               
    61 r.65                  1978.34      -974.812               
    62 r.66                     1001             2               
    63 r.67                    -1001         -1001               
    64 r.68                  1948.42      -989.782               
    65 r.69                 -939.641      -972.251               
    66 r.70                  63.0545      -987.865               
    67 r.71                 -939.641      -972.251               
    68 r.72                  63.0545      -987.865               
    69 r.73                  21.4122      -936.109               
    70 r.74                 -978.588      -978.588               
    71 r.75                  21.4122      -936.109               
    72 r.76                 -978.588      -978.588               
    73 r.77                     1001             2               
    74 r.78                    -1001         -1001               
    75 r.79                  2021.41      -935.995               
    76 r.80                     1001             2               
    77 r.81                    -1001         -1001               
    78 r.82                     2000      -978.335               
    79 r.83                        2             2               
    80 r.84                       -2         -1001               
    81 r.85                  27.7486       27.7486               
    82 r.86                     1000             2               
    83 r.87                    -1000         -1001               
    84 r.88                  2022.92       12.1354               
    85 r.89                     1001             2               
    86 r.90                    -1001         -1001               
    87 r.91                  2007.52      -948.202               
    88 r.92                     1001             2               
    89 r.93                    -1001         -1001               
    90 r.94                     2000       -980.34               
    91 r.95                     1001             2               
    92 r.96                    -1001         -1001               
    93 r.97                  1987.86      -973.767               
    94 r.98                     1001             2               
    95 r.99                    -1001         -1001               
    96 r.100                 1980.34      -989.746               
    97 r.101                    1001             2               
    98 r.102                   -1001         -1001               
    99 r.103                 2007.52      -974.812               
   100 r.104                    1001             2               
   101 r.105                   -1001         -1001               
   102 r.106                 1970.09      -989.782               
   103 r.107                -968.828      -970.909               
   104 r.108                 41.3895      -987.512               
   105 r.109                -968.828      -970.909               
   106 r.110                 41.3895      -987.512               
   107 r.111                    1001             2               
   108 r.112                   -1001         -1001               
   109 r.113                  2050.6      -936.109               
   110 r.114                    1001             2               
   111 r.115                   -1001         -1001               
   112 r.116                 2043.08      -978.588               
   113 r.117                 50.5996      -935.995               
   114 r.118                -970.813      -978.335               
   115 r.119                 43.0772      -935.995               
   116 r.120                -978.335      -978.335               
   117 r.121                    1001             2               
   118 r.122                   -1001         -1001               
   119 r.123                 2020.23       27.7486               
   120 r.124                    1001             2               
   121 r.125                   -1001         -1001               
   122 r.126                 2022.92       12.1354               
   123 r.127                    1001             2               
   124 r.128                   -1001         -1001               
   125 r.129                 1991.04       29.0909               
   126 r.130                    1001             2               
   127 r.131                   -1001         -1001               
   128 r.132                 2001.26       12.4885               
   129 r.133                 19.6601      -948.202               
   130 r.134                 -980.34       -980.34               
   131 r.135                 19.6601      -948.202               
   132 r.136                 -980.34       -980.34               
   133 r.137                    1000             2               
   134 r.138                   -1000         -1001               
   135 r.139                    2000      -974.812               
   136 r.140                       2             2               
   137 r.141                      -2         -1001               
   138 r.142                -29.9144      -989.782               
   139 r.143                 40.1329      -948.202               
   140 r.144                -959.867       -980.34               
   141 r.145                 40.1329      -948.202               
   142 r.146                -959.867       -980.34               
   143 r.147                    1000             2               
   144 r.148                   -1000         -1001               
   145 r.149                 2043.08      -936.109               
   146 r.150                       2             2               
   147 r.151                      -2         -1001               
   148 r.152                -956.923      -978.588               
   149 r.153                 43.0772      -935.995               
   150 r.154                -978.335      -978.335               
   151 r.155                 43.0772      -935.995               
   152 r.156                -978.335      -978.335               
   153 r.157                    1001             2               
   154 r.158                   -1001         -1001               
   155 r.159                 2039.89       27.7486               
   156 r.160                    1001             2               
   157 r.161                   -1001         -1001               
   158 r.162                 2042.58       12.1354               
   159 r.163                    1001             2               
   160 r.164                   -1001         -1001               
   161 r.165                  2010.7       29.0909               
   162 r.166                    1001             2               
   163 r.167                   -1001         -1001               
   164 r.168                 2020.92       12.4885               
   165 r.169                    1000             2               
   166 r.170                   -1000         -1001               
   167 r.171                 2019.66      -974.812               
   168 r.172                       2             2               
   169 r.173                      -2         -1001               
   170 r.174                -10.2543      -989.782               
   171 r.175                 20.4728      -973.767               
   172 r.176                -979.527      -989.746               
   173 r.177                 20.4728      -973.767               
   174 r.178                -979.527      -989.746               
   175 r.179                    1000             2               
   176 r.180                   -1000         -1001               
   177 r.181                 2062.74      -936.109               
   178 r.182                       2             2               
   179 r.183                      -2         -1001               
   180 r.184                -937.263      -978.588               
   181 r.185                 62.7373      -935.995               
   182 r.186                -958.675      -978.335               
   183 r.187                 62.7373      -935.995               
   184 r.188                -958.675      -978.335               
   185 r.189                    1001             2               
   186 r.190                   -1001         -1001               
   187 r.191                 2020.23       27.7486               
   188 r.192                    1001             2               
   189 r.193                   -1001         -1001               
   190 r.194                 2052.84       12.1354               
   191 r.195                    1001             2               
   192 r.196                   -1001         -1001               
   193 r.197                 1991.04       29.0909               
   194 r.198                    1001             2               
   195 r.199                   -1001         -1001               
   196 r.200                 2031.17       12.4885               
   197 r.201                    1000             2               
   198 r.202                   -1000         -1001               
   199 r.203                    2000       51.7985               
   200 r.204                       2             2               
   201 r.205                      -2         -1001               
   202 r.206                 29.9144       19.6601               
   203 r.207                    1000             2               
   204 r.208                   -1000         -1001               
   205 r.209                 1980.34       26.2334               
   206 r.210                       2             2               
   207 r.211                      -2         -1001               
   208 r.212                 10.2543       10.2543               
   209 r.213                 40.1329      -974.812               
   210 r.214                -989.782      -989.782               
   211 r.215                 40.1329      -974.812               
   212 r.216                -989.782      -989.782               
   213 r.217                 43.0772      -936.109               
   214 r.218                -956.923      -978.588               
   215 r.219                 72.9916      -936.109               
   216 r.220                -927.008      -978.588               
   217 r.221                 43.0772      -935.995               
   218 r.222                -978.335      -978.335               
   219 r.223                 72.9916      -935.995               
   220 r.224                -948.421      -978.335               
   221 r.225                    1001             2               
   222 r.226                   -1001         -1001               
   223 r.227                 1947.96       29.0909               
   224 r.228                    1001             2               
   225 r.229                   -1001         -1001               
   226 r.230                 1958.18       12.4885               
   227 r.231                    1000             2               
   228 r.232                   -1000         -1001               
   229 r.233                 1956.92       51.7985               
   230 r.234                       2             2               
   231 r.235                      -2         -1001               
   232 r.236                 956.923       19.6601               
   233 r.237                    1000             2               
   234 r.238                   -1000         -1001               
   235 r.239                 1937.26       26.2334               
   236 r.240                       2             2               
   237 r.241                      -2         -1001               
   238 r.242                 937.263       10.2543               
   239 r.243                    1000             2               
   240 r.244                   -1000         -1001               
   241 r.245                    2000      -935.995               
   242 r.246                       2             2               
   243 r.247                      -2         -1001               
   244 r.248                -21.4122      -978.335               
   245 r.249                    1001             2               
   246 r.250                   -1001         -1001               
   247 r.251                 1977.15       27.7486               
   248 r.252                    1001             2               
   249 r.253                   -1001         -1001               
   250 r.254                 2001.26       12.1354               
   251 r.255                    1000             2               
   252 r.256                   -1000         -1001               
   253 r.257                    2000       63.8911               
   254 r.258                       2             2               
   255 r.259                      -2         -1001               
   256 r.260                 21.4122       21.4122               

   No. Column name       Activity     Lower bound   Upper bound
------ ------------    ------------- ------------- -------------
     1 tt                    88.0435             0               
     2 s_1_1        *              1             0             1 
     3 t_1_1                 21.4122             0               
     4 s_1_7        *              0             0             1 
     5 s_2_1        *              0             0             1 
     6 t_2_1                 21.4122             0               
     7 s_2_7        *              1             0             1 
     8 s_1_2        *              1             0             1 
     9 t_1_2                 50.5996             0               
    10 s_1_8        *              0             0             1 
    11 s_2_2        *              0             0             1 
    12 t_2_2                 43.0772             0               
    13 s_2_8        *              1             0             1 
    14 s_1_3        *              0             0             1 
    15 t_1_3                 43.0772             0               
    16 s_2_3        *              1             0             1 
    17 t_2_3                 43.0772             0               
    18 s_1_4        *              0             0             1 
    19 t_1_4                 62.7373             0               
    20 s_2_4        *              1             0             1 
    21 t_2_4                 62.7373             0               
    22 s_1_5        *              0             0             1 
    23 t_1_5                 43.0772             0               
    24 s_2_5        *              1             0             1 
    25 t_2_5                 72.9916             0               
    26 s_1_6        *              1             0             1 
    27 t_1_6                 83.2101             0               
    28 s_2_6        *              0             0             1 
    29 t_2_6                 83.2101             0               
    30 t_1_7                       0             0               
    31 t_2_7                       0             0               
    32 t_1_8                       0             0               
    33 t_2_8                 21.4122             0               
    34 r_1_1_2      *              0             0             1 
    35 u_1_1_2      *              0             0             1 
    36 r_2_1_2      *              1             0             1 
    37 u_2_1_2      *              0             0             1 
    38 r_1_1_3      *              1             0             1 
    39 u_1_1_3      *              0             0             1 
    40 r_2_1_3      *              1             0             1 
    41 u_2_1_3      *              0             0             1 
    42 r_1_1_4      *              1             0             1 
    43 u_1_1_4      *              0             0             1 
    44 r_2_1_4      *              1             0             1 
    45 u_2_1_4      *              0             0             1 
    46 r_1_1_5      *              1             0             1 
    47 u_1_1_5      *              0             0             1 
    48 r_2_1_5      *              1             0             1 
    49 u_2_1_5      *              0             0             1 
    50 r_1_1_8      *              1             0             1 
    51 u_1_1_8      *              0             0             1 
    52 r_2_1_8      *              1             0             1 
    53 u_2_1_8      *              0             0             1 
    54 r_1_2_3      *              1             0             1 
    55 u_1_2_3      *              0             0             1 
    56 r_2_2_3      *              1             0             1 
    57 u_2_2_3      *              0             0             1 
    58 r_1_2_4      *              1             0             1 
    59 u_1_2_4      *              0             0             1 
    60 r_2_2_4      *              1             0             1 
    61 u_2_2_4      *              0             0             1 
    62 r_1_2_5      *              1             0             1 
    63 u_1_2_5      *              0             0             1 
    64 r_2_2_5      *              1             0             1 
    65 u_2_2_5      *              0             0             1 
    66 r_1_2_7      *              1             0             1 
    67 u_1_2_7      *              0             0             1 
    68 r_2_2_7      *              1             0             1 
    69 u_2_2_7      *              0             0             1 
    70 r_1_3_5      *              1             0             1 
    71 u_1_3_5      *              0             0             1 
    72 r_2_3_5      *              0             0             1 
    73 u_2_3_5      *              0             0             1 
    74 r_1_3_7      *              1             0             1 
    75 u_1_3_7      *              0             0             1 
    76 r_2_3_7      *              0             0             1 
    77 u_2_3_7      *              1             0             1 
    78 r_1_4_5      *              1             0             1 
    79 u_1_4_5      *              0             0             1 
    80 r_2_4_5      *              0             0             1 
    81 u_2_4_5      *              0             0             1 
    82 r_1_4_7      *              1             0             1 
    83 u_1_4_7      *              0             0             1 
    84 r_2_4_7      *              0             0             1 
    85 u_2_4_7      *              1             0             1 
    86 r_1_7_8      *              1             0             1 
    87 u_1_7_8      *              0             0             1 
    88 r_2_7_8      *              0             0             1 
    89 u_2_7_8      *              0             0             1 

Integer feasibility conditions:

KKT.PE: max.abs.err = 2.27e-13 on row 12
        max.rel.err = 1.09e-16 on row 12
        High quality

KKT.PB: max.abs.err = 0.00e+00 on row 0
        max.rel.err = 0.00e+00 on row 0
        High quality

End of output
